(set-logic ALL)
(declare-fun var0 () String)
(assert (str.in_re var0 (re.++ (re.+ (re.union (str.to_re "000") (str.to_re "1"))) (re.++ (re.+ (re.union (str.to_re "22") (str.to_re "333"))) (re.++ (re.union (re.+ (str.to_re "444")) (re.+ (str.to_re "55"))) (re.++ (re.* (re.union (str.to_re "66") (str.to_re "77"))) (re.++ (re.* (re.* (str.to_re "88"))) (re.++ (re.+ (re.* (str.to_re "99"))) (re.++ (re.+ (re.+ (str.to_re "aaa"))) (re.++ (re.+ (re.+ (str.to_re "bb"))) (re.++ (re.* (re.+ (str.to_re "cc"))) (re.++ (re.union (re.union (str.to_re "d") (str.to_re "e")) (re.union (str.to_re "ff") (str.to_re "ggg"))) (re.++ (re.* (re.* (str.to_re "h"))) (re.++ (re.union (re.+ (str.to_re "iii")) (re.+ (str.to_re "jjj"))) (re.++ (re.* (re.* (str.to_re "k"))) (re.++ (re.union (re.* (str.to_re "lll")) (re.* (str.to_re "mm"))) (re.++ (re.union (re.* (str.to_re "n")) (re.* (str.to_re "o"))) (re.++ (re.union (re.union (str.to_re "p") (str.to_re "qqq")) (re.union (str.to_re "rrr") (str.to_re "ss"))) (re.++ (re.* (re.* (str.to_re "tt"))) (re.++ (re.+ (re.* (str.to_re "uu"))) (re.++ (re.+ (re.+ (str.to_re "vvv"))) (re.++ (re.union (re.union (str.to_re "www") (str.to_re "xx")) (re.union (str.to_re "yy") (str.to_re "zz"))) (re.++ (re.union (re.+ (str.to_re "AA")) (re.+ (str.to_re "BB"))) (re.++ (re.union (re.* (str.to_re "C")) (re.* (str.to_re "DDD"))) (re.++ (re.* (re.* (str.to_re "EE"))) (re.++ (re.union (re.+ (str.to_re "FF")) (re.+ (str.to_re "GGG"))) (re.++ (re.* (re.+ (str.to_re "H"))) (re.++ (re.union (re.* (str.to_re "II")) (re.* (str.to_re "J"))) (re.* (re.union (str.to_re "K") (str.to_re "L")))))))))))))))))))))))))))))))
(check-sat)